ciphers.atbash/695_sat.smt2
(set-logic ALL)
(declare-const sequence_VAR String)
(assert (< 0 (str.len sequence_VAR)))
(assert (> (str.len sequence_VAR) 0))
(assert (< 1 (str.len sequence_VAR)))
(assert (> (str.len sequence_VAR) 1))
(assert (< 2 (str.len sequence_VAR)))
(assert (> (str.len sequence_VAR) 2))
(assert (< 3 (str.len sequence_VAR)))
(assert (> (str.len sequence_VAR) 3))
(assert (< 4 (str.len sequence_VAR)))
(assert (> (str.len sequence_VAR) 4))
(assert (< 5 (str.len sequence_VAR)))
(assert (> (str.len sequence_VAR) 5))
(assert (< 6 (str.len sequence_VAR)))
(assert (> (str.len sequence_VAR) 6))
(assert (< 7 (str.len sequence_VAR)))
(assert (> (str.len sequence_VAR) 7))
(assert (< 8 (str.len sequence_VAR)))
(assert (> (str.len sequence_VAR) 8))
(assert (< 9 (str.len sequence_VAR)))
(assert (> (str.len sequence_VAR) 9))
(assert (< 10 (str.len sequence_VAR)))
(assert (> (str.len sequence_VAR) 10))
(assert (< 11 (str.len sequence_VAR)))
(assert (> (str.len sequence_VAR) 11))
(assert (< 12 (str.len sequence_VAR)))
(assert (> (str.len sequence_VAR) 12))
(assert (< 13 (str.len sequence_VAR)))
(assert (> (str.len sequence_VAR) 13))
(assert (< 14 (str.len sequence_VAR)))
(assert (> (str.len sequence_VAR) 14))
(assert (< 15 (str.len sequence_VAR)))
(assert (> (str.len sequence_VAR) 15))
(assert (< 16 (str.len sequence_VAR)))
(assert (> (str.len sequence_VAR) 16))
(assert (< 17 (str.len sequence_VAR)))
(assert (> (str.len sequence_VAR) 17))
(assert (< 18 (str.len sequence_VAR)))
(assert (> (str.len sequence_VAR) 18))
(assert (< 19 (str.len sequence_VAR)))
(assert (> (str.len sequence_VAR) 19))
(assert (< 20 (str.len sequence_VAR)))
(assert (> (str.len sequence_VAR) 20))
(assert (< 21 (str.len sequence_VAR)))
(assert (> (str.len sequence_VAR) 21))
(assert (< 22 (str.len sequence_VAR)))
(assert (> (str.len sequence_VAR) 22))
(assert (< 23 (str.len sequence_VAR)))
(assert (> (str.len sequence_VAR) 23))
(assert (< 24 (str.len sequence_VAR)))
(assert (> (str.len sequence_VAR) 24))
(assert (< 25 (str.len sequence_VAR)))
(assert (> (str.len sequence_VAR) 25))
(assert (< 26 (str.len sequence_VAR)))
(assert (> (str.len sequence_VAR) 26))
(assert (< 27 (str.len sequence_VAR)))
(assert (> (str.len sequence_VAR) 27))
(assert (< 28 (str.len sequence_VAR)))
(assert (> (str.len sequence_VAR) 28))
(assert (< 29 (str.len sequence_VAR)))
(assert (> (str.len sequence_VAR) 29))
(assert (< 30 (str.len sequence_VAR)))
(assert (> (str.len sequence_VAR) 30))
(assert (< 31 (str.len sequence_VAR)))
(assert (> (str.len sequence_VAR) 31))
(assert (< 32 (str.len sequence_VAR)))
(assert (> (str.len sequence_VAR) 32))
(assert (< 33 (str.len sequence_VAR)))
(assert (> (str.len sequence_VAR) 33))
(assert (< 34 (str.len sequence_VAR)))
(assert (> (str.len sequence_VAR) 34))
(assert (< 35 (str.len sequence_VAR)))
(assert (> (str.len sequence_VAR) 35))
(assert (< 36 (str.len sequence_VAR)))
(assert (> (str.len sequence_VAR) 36))
(assert (< 37 (str.len sequence_VAR)))
(assert (> (str.len sequence_VAR) 37))
(assert (< 38 (str.len sequence_VAR)))
(assert (> (str.len sequence_VAR) 38))
(assert (< 39 (str.len sequence_VAR)))
(assert (> (str.len sequence_VAR) 39))
(assert (< 40 (str.len sequence_VAR)))
(assert (> (str.len sequence_VAR) 40))
(assert (< 41 (str.len sequence_VAR)))
(assert (> (str.len sequence_VAR) 41))
(assert (< 42 (str.len sequence_VAR)))
(assert (> (str.len sequence_VAR) 42))
(assert (< 43 (str.len sequence_VAR)))
(assert (> (str.len sequence_VAR) 43))
(assert (< 44 (str.len sequence_VAR)))
(assert (> (str.len sequence_VAR) 44))
(assert (< 45 (str.len sequence_VAR)))
(assert (> (str.len sequence_VAR) 45))
(assert (< 46 (str.len sequence_VAR)))
(assert (> (str.len sequence_VAR) 46))
(assert (< 47 (str.len sequence_VAR)))
(assert (> (str.len sequence_VAR) 47))
(assert (< 48 (str.len sequence_VAR)))
(assert (> (str.len sequence_VAR) 48))
(assert (< 49 (str.len sequence_VAR)))
(assert (> (str.len sequence_VAR) 49))
(assert (< 50 (str.len sequence_VAR)))
(assert (> (str.len sequence_VAR) 50))
(assert (< 51 (str.len sequence_VAR)))
(assert (> (str.len sequence_VAR) 51))
(assert (< 52 (str.len sequence_VAR)))
(assert (> (str.len sequence_VAR) 52))
(assert (< 53 (str.len sequence_VAR)))
(assert (> (str.len sequence_VAR) 53))
(assert (< 54 (str.len sequence_VAR)))
(assert (> (str.len sequence_VAR) 54))
(assert (< 55 (str.len sequence_VAR)))
(assert (> (str.len sequence_VAR) 55))
(assert (< 56 (str.len sequence_VAR)))
(assert (> (str.len sequence_VAR) 56))
(assert (< 57 (str.len sequence_VAR)))
(assert (> (str.len sequence_VAR) 57))
(assert (< 58 (str.len sequence_VAR)))
(assert (> (str.len sequence_VAR) 58))
(assert (< 59 (str.len sequence_VAR)))
(assert (> (str.len sequence_VAR) 59))
(assert (< 60 (str.len sequence_VAR)))
(assert (> (str.len sequence_VAR) 60))
(assert (< 61 (str.len sequence_VAR)))
(assert (> (str.len sequence_VAR) 61))
(assert (< 62 (str.len sequence_VAR)))
(assert (> (str.len sequence_VAR) 62))
(assert (< 63 (str.len sequence_VAR)))
(assert (> (str.len sequence_VAR) 63))
(assert (< 64 (str.len sequence_VAR)))
(assert (> (str.len sequence_VAR) 64))
(assert (< 65 (str.len sequence_VAR)))
(assert (> (str.len sequence_VAR) 65))
(assert (< 66 (str.len sequence_VAR)))
(assert (> (str.len sequence_VAR) 66))
(assert (< 67 (str.len sequence_VAR)))
(assert (> (str.len sequence_VAR) 67))
(assert (< 68 (str.len sequence_VAR)))
(assert (> (str.len sequence_VAR) 68))
(assert (< 69 (str.len sequence_VAR)))
(assert (> (str.len sequence_VAR) 69))
(assert (< 70 (str.len sequence_VAR)))
(assert (> (str.len sequence_VAR) 70))
(assert (< 71 (str.len sequence_VAR)))
(assert (> (str.len sequence_VAR) 71))
(assert (< 72 (str.len sequence_VAR)))
(assert (> (str.len sequence_VAR) 72))
(assert (< 73 (str.len sequence_VAR)))
(assert (> (str.len sequence_VAR) 73))
(assert (< 74 (str.len sequence_VAR)))
(assert (> (str.len sequence_VAR) 74))
(assert (< 75 (str.len sequence_VAR)))
(assert (> (str.len sequence_VAR) 75))
(assert (< 76 (str.len sequence_VAR)))
(assert (> (str.len sequence_VAR) 76))
(assert (< 77 (str.len sequence_VAR)))
(assert (> (str.len sequence_VAR) 77))
(assert (< 78 (str.len sequence_VAR)))
(assert (> (str.len sequence_VAR) 78))
(assert (< 79 (str.len sequence_VAR)))
(assert (> (str.len sequence_VAR) 79))
(assert (< 80 (str.len sequence_VAR)))
(assert (> (str.len sequence_VAR) 80))
(assert (< 81 (str.len sequence_VAR)))
(assert (> (str.len sequence_VAR) 81))
(assert (< 82 (str.len sequence_VAR)))
(assert (> (str.len sequence_VAR) 82))
(assert (< 83 (str.len sequence_VAR)))
(assert (> (str.len sequence_VAR) 83))
(assert (< 84 (str.len sequence_VAR)))
(assert (> (str.len sequence_VAR) 84))
(assert (< 85 (str.len sequence_VAR)))
(assert (> (str.len sequence_VAR) 85))
(assert (< 86 (str.len sequence_VAR)))
(assert (> (str.len sequence_VAR) 86))
(assert (< 87 (str.len sequence_VAR)))
(assert (> (str.len sequence_VAR) 87))
(assert (< 88 (str.len sequence_VAR)))
(assert (> (str.len sequence_VAR) 88))
(assert (< 89 (str.len sequence_VAR)))
(assert (> (str.len sequence_VAR) 89))
(assert (< 90 (str.len sequence_VAR)))
(assert (> (str.len sequence_VAR) 90))
(assert (< 91 (str.len sequence_VAR)))
(assert (> (str.len sequence_VAR) 91))
(assert (< 92 (str.len sequence_VAR)))
(assert (> (str.len sequence_VAR) 92))
(assert (< 93 (str.len sequence_VAR)))
(assert (> (str.len sequence_VAR) 93))
(assert (< 94 (str.len sequence_VAR)))
(assert (> (str.len sequence_VAR) 94))
(assert (< 95 (str.len sequence_VAR)))
(assert (> (str.len sequence_VAR) 95))
(assert (< 96 (str.len sequence_VAR)))
(assert (> (str.len sequence_VAR) 96))
(assert (< 97 (str.len sequence_VAR)))
(assert (> (str.len sequence_VAR) 97))
(assert (< 98 (str.len sequence_VAR)))
(assert (> (str.len sequence_VAR) 98))
(assert (< 99 (str.len sequence_VAR)))
(assert (> (str.len sequence_VAR) 99))
(assert (< 100 (str.len sequence_VAR)))
(assert (> (str.len sequence_VAR) 100))
(assert (< 101 (str.len sequence_VAR)))
(assert (> (str.len sequence_VAR) 101))
(assert (< 102 (str.len sequence_VAR)))
(assert (> (str.len sequence_VAR) 102))
(assert (< 103 (str.len sequence_VAR)))
(assert (> (str.len sequence_VAR) 103))
(assert (< 104 (str.len sequence_VAR)))
(assert (> (str.len sequence_VAR) 104))
(assert (< 105 (str.len sequence_VAR)))
(assert (> (str.len sequence_VAR) 105))
(assert (< 106 (str.len sequence_VAR)))
(assert (> (str.len sequence_VAR) 106))
(assert (< 107 (str.len sequence_VAR)))
(assert (> (str.len sequence_VAR) 107))
(assert (< 108 (str.len sequence_VAR)))
(assert (> (str.len sequence_VAR) 108))
(assert (< 109 (str.len sequence_VAR)))
(assert (> (str.len sequence_VAR) 109))
(assert (< 110 (str.len sequence_VAR)))
(assert (> (str.len sequence_VAR) 110))
(assert (< 111 (str.len sequence_VAR)))
(assert (> (str.len sequence_VAR) 111))
(assert (< 112 (str.len sequence_VAR)))
(assert (> (str.len sequence_VAR) 112))
(assert (< 113 (str.len sequence_VAR)))
(assert (> (str.len sequence_VAR) 113))
(assert (< 114 (str.len sequence_VAR)))
(assert (> (str.len sequence_VAR) 114))
(assert (< 115 (str.len sequence_VAR)))
(assert (> (str.len sequence_VAR) 115))
(assert (< 116 (str.len sequence_VAR)))
(assert (> (str.len sequence_VAR) 116))
(assert (< 117 (str.len sequence_VAR)))
(assert (> (str.len sequence_VAR) 117))
(assert (< 118 (str.len sequence_VAR)))
(assert (> (str.len sequence_VAR) 118))
(assert (< 119 (str.len sequence_VAR)))
(assert (> (str.len sequence_VAR) 119))
(assert (< 120 (str.len sequence_VAR)))
(assert (> (str.len sequence_VAR) 120))
(assert (< 121 (str.len sequence_VAR)))
(assert (> (str.len sequence_VAR) 121))
(assert (< 122 (str.len sequence_VAR)))
(assert (> (str.len sequence_VAR) 122))
(assert (< 123 (str.len sequence_VAR)))
(assert (> (str.len sequence_VAR) 123))
(assert (< 124 (str.len sequence_VAR)))
(assert (> (str.len sequence_VAR) 124))
(assert (< 125 (str.len sequence_VAR)))
(assert (> (str.len sequence_VAR) 125))
(assert (< 126 (str.len sequence_VAR)))
(assert (> (str.len sequence_VAR) 126))
(assert (< 127 (str.len sequence_VAR)))
(assert (> (str.len sequence_VAR) 127))
(assert (< 128 (str.len sequence_VAR)))
(assert (> (str.len sequence_VAR) 128))
(assert (< 129 (str.len sequence_VAR)))
(assert (> (str.len sequence_VAR) 129))
(assert (< 130 (str.len sequence_VAR)))
(assert (> (str.len sequence_VAR) 130))
(assert (< 131 (str.len sequence_VAR)))
(assert (> (str.len sequence_VAR) 131))
(assert (< 132 (str.len sequence_VAR)))
(assert (> (str.len sequence_VAR) 132))
(assert (< 133 (str.len sequence_VAR)))
(assert (> (str.len sequence_VAR) 133))
(assert (< 134 (str.len sequence_VAR)))
(assert (> (str.len sequence_VAR) 134))
(assert (< 135 (str.len sequence_VAR)))
(assert (> (str.len sequence_VAR) 135))
(assert (< 136 (str.len sequence_VAR)))
(assert (> (str.len sequence_VAR) 136))
(assert (< 137 (str.len sequence_VAR)))
(assert (> (str.len sequence_VAR) 137))
(assert (< 138 (str.len sequence_VAR)))
(assert (> (str.len sequence_VAR) 138))
(assert (< 139 (str.len sequence_VAR)))
(assert (> (str.len sequence_VAR) 139))
(assert (< 140 (str.len sequence_VAR)))
(assert (> (str.len sequence_VAR) 140))
(assert (< 141 (str.len sequence_VAR)))
(assert (> (str.len sequence_VAR) 141))
(assert (< 142 (str.len sequence_VAR)))
(assert (> (str.len sequence_VAR) 142))
(assert (< 143 (str.len sequence_VAR)))
(assert (> (str.len sequence_VAR) 143))
(assert (< 144 (str.len sequence_VAR)))
(assert (> (str.len sequence_VAR) 144))
(assert (< 145 (str.len sequence_VAR)))
(assert (> (str.len sequence_VAR) 145))
(assert (< 146 (str.len sequence_VAR)))
(assert (> (str.len sequence_VAR) 146))
(assert (< 147 (str.len sequence_VAR)))
(assert (> (str.len sequence_VAR) 147))
(assert (< 148 (str.len sequence_VAR)))
(assert (> (str.len sequence_VAR) 148))
(assert (< 149 (str.len sequence_VAR)))
(assert (> (str.len sequence_VAR) 149))
(assert (< 150 (str.len sequence_VAR)))
(assert (> (str.len sequence_VAR) 150))
(assert (< 151 (str.len sequence_VAR)))
(assert (> (str.len sequence_VAR) 151))
(assert (< 152 (str.len sequence_VAR)))
(assert (> (str.len sequence_VAR) 152))
(assert (< 153 (str.len sequence_VAR)))
(assert (> (str.len sequence_VAR) 153))
(assert (< 154 (str.len sequence_VAR)))
(assert (> (str.len sequence_VAR) 154))
(assert (< 155 (str.len sequence_VAR)))
(assert (> (str.len sequence_VAR) 155))
(assert (< 156 (str.len sequence_VAR)))
(assert (> (str.len sequence_VAR) 156))
(assert (< 157 (str.len sequence_VAR)))
(assert (> (str.len sequence_VAR) 157))
(assert (< 158 (str.len sequence_VAR)))
(assert (> (str.len sequence_VAR) 158))
(assert (< 159 (str.len sequence_VAR)))
(assert (> (str.len sequence_VAR) 159))
(assert (< 160 (str.len sequence_VAR)))
(assert (> (str.len sequence_VAR) 160))
(assert (< 161 (str.len sequence_VAR)))
(assert (> (str.len sequence_VAR) 161))
(assert (< 162 (str.len sequence_VAR)))
(assert (> (str.len sequence_VAR) 162))
(assert (< 163 (str.len sequence_VAR)))
(assert (> (str.len sequence_VAR) 163))
(assert (< 164 (str.len sequence_VAR)))
(assert (> (str.len sequence_VAR) 164))
(assert (< 165 (str.len sequence_VAR)))
(assert (> (str.len sequence_VAR) 165))
(assert (< 166 (str.len sequence_VAR)))
(assert (> (str.len sequence_VAR) 166))
(assert (< 167 (str.len sequence_VAR)))
(assert (> (str.len sequence_VAR) 167))
(assert (< 168 (str.len sequence_VAR)))
(assert (> (str.len sequence_VAR) 168))
(assert (< 169 (str.len sequence_VAR)))
(assert (> (str.len sequence_VAR) 169))
(assert (< 170 (str.len sequence_VAR)))
(assert (> (str.len sequence_VAR) 170))
(assert (< 171 (str.len sequence_VAR)))
(assert (> (str.len sequence_VAR) 171))
(assert (< 172 (str.len sequence_VAR)))
(assert (> (str.len sequence_VAR) 172))
(assert (< 173 (str.len sequence_VAR)))
(assert (> (str.len sequence_VAR) 173))
(assert (< 174 (str.len sequence_VAR)))
(assert (> (str.len sequence_VAR) 174))
(assert (< 175 (str.len sequence_VAR)))
(assert (> (str.len sequence_VAR) 175))
(assert (< 176 (str.len sequence_VAR)))
(assert (> (str.len sequence_VAR) 176))
(assert (< 177 (str.len sequence_VAR)))
(assert (> (str.len sequence_VAR) 177))
(assert (< 178 (str.len sequence_VAR)))
(assert (> (str.len sequence_VAR) 178))
(assert (< 179 (str.len sequence_VAR)))
(assert (> (str.len sequence_VAR) 179))
(assert (< 180 (str.len sequence_VAR)))
(assert (> (str.len sequence_VAR) 180))
(assert (< 181 (str.len sequence_VAR)))
(assert (> (str.len sequence_VAR) 181))
(assert (< 182 (str.len sequence_VAR)))
(assert (> (str.len sequence_VAR) 182))
(assert (< 183 (str.len sequence_VAR)))
(assert (> (str.len sequence_VAR) 183))
(assert (< 184 (str.len sequence_VAR)))
(assert (> (str.len sequence_VAR) 184))
(assert (< 185 (str.len sequence_VAR)))
(assert (> (str.len sequence_VAR) 185))
(assert (< 186 (str.len sequence_VAR)))
(assert (> (str.len sequence_VAR) 186))
(assert (< 187 (str.len sequence_VAR)))
(assert (> (str.len sequence_VAR) 187))
(assert (< 188 (str.len sequence_VAR)))
(assert (> (str.len sequence_VAR) 188))
(assert (< 189 (str.len sequence_VAR)))
(assert (> (str.len sequence_VAR) 189))
(assert (< 190 (str.len sequence_VAR)))
(assert (> (str.len sequence_VAR) 190))
(assert (< 191 (str.len sequence_VAR)))
(assert (> (str.len sequence_VAR) 191))
(assert (< 192 (str.len sequence_VAR)))
(assert (> (str.len sequence_VAR) 192))
(assert (< 193 (str.len sequence_VAR)))
(assert (> (str.len sequence_VAR) 193))
(assert (< 194 (str.len sequence_VAR)))
(assert (> (str.len sequence_VAR) 194))
(assert (< 195 (str.len sequence_VAR)))
(assert (> (str.len sequence_VAR) 195))
(assert (< 196 (str.len sequence_VAR)))
(assert (> (str.len sequence_VAR) 196))
(assert (< 197 (str.len sequence_VAR)))
(assert (> (str.len sequence_VAR) 197))
(assert (< 198 (str.len sequence_VAR)))
(assert (> (str.len sequence_VAR) 198))
(assert (< 199 (str.len sequence_VAR)))
(assert (> (str.len sequence_VAR) 199))
(assert (< 200 (str.len sequence_VAR)))
(assert (> (str.len sequence_VAR) 200))
(assert (< 201 (str.len sequence_VAR)))
(assert (> (str.len sequence_VAR) 201))
(assert (< 202 (str.len sequence_VAR)))
(assert (> (str.len sequence_VAR) 202))
(assert (< 203 (str.len sequence_VAR)))
(assert (> (str.len sequence_VAR) 203))
(assert (< 204 (str.len sequence_VAR)))
(assert (> (str.len sequence_VAR) 204))
(assert (< 205 (str.len sequence_VAR)))
(assert (> (str.len sequence_VAR) 205))
(assert (< 206 (str.len sequence_VAR)))
(assert (> (str.len sequence_VAR) 206))
(assert (< 207 (str.len sequence_VAR)))
(assert (> (str.len sequence_VAR) 207))
(assert (< 208 (str.len sequence_VAR)))
(assert (> (str.len sequence_VAR) 208))
(assert (< 209 (str.len sequence_VAR)))
(assert (> (str.len sequence_VAR) 209))
(assert (< 210 (str.len sequence_VAR)))
(assert (> (str.len sequence_VAR) 210))
(assert (< 211 (str.len sequence_VAR)))
(assert (> (str.len sequence_VAR) 211))
(assert (< 212 (str.len sequence_VAR)))
(assert (> (str.len sequence_VAR) 212))
(assert (< 213 (str.len sequence_VAR)))
(assert (> (str.len sequence_VAR) 213))
(assert (< 214 (str.len sequence_VAR)))
(assert (> (str.len sequence_VAR) 214))
(assert (< 215 (str.len sequence_VAR)))
(assert (> (str.len sequence_VAR) 215))
(assert (< 216 (str.len sequence_VAR)))
(assert (> (str.len sequence_VAR) 216))
(assert (< 217 (str.len sequence_VAR)))
(assert (> (str.len sequence_VAR) 217))
(assert (< 218 (str.len sequence_VAR)))
(assert (> (str.len sequence_VAR) 218))
(assert (< 219 (str.len sequence_VAR)))
(assert (> (str.len sequence_VAR) 219))
(assert (< 220 (str.len sequence_VAR)))
(assert (> (str.len sequence_VAR) 220))
(assert (< 221 (str.len sequence_VAR)))
(assert (> (str.len sequence_VAR) 221))
(assert (< 222 (str.len sequence_VAR)))
(assert (> (str.len sequence_VAR) 222))
(assert (< 223 (str.len sequence_VAR)))
(assert (> (str.len sequence_VAR) 223))
(assert (< 224 (str.len sequence_VAR)))
(assert (> (str.len sequence_VAR) 224))
(assert (< 225 (str.len sequence_VAR)))
(assert (> (str.len sequence_VAR) 225))
(assert (< 226 (str.len sequence_VAR)))
(assert (> (str.len sequence_VAR) 226))
(assert (< 227 (str.len sequence_VAR)))
(assert (> (str.len sequence_VAR) 227))
(assert (< 228 (str.len sequence_VAR)))
(assert (> (str.len sequence_VAR) 228))
(assert (< 229 (str.len sequence_VAR)))
(assert (> (str.len sequence_VAR) 229))
(assert (< 230 (str.len sequence_VAR)))
(assert (> (str.len sequence_VAR) 230))
(assert (< 231 (str.len sequence_VAR)))
(assert (> (str.len sequence_VAR) 231))
(assert (< 232 (str.len sequence_VAR)))
(assert (> (str.len sequence_VAR) 232))
(assert (< 233 (str.len sequence_VAR)))
(assert (> (str.len sequence_VAR) 233))
(assert (< 234 (str.len sequence_VAR)))
(assert (> (str.len sequence_VAR) 234))
(assert (< 235 (str.len sequence_VAR)))
(assert (> (str.len sequence_VAR) 235))
(assert (< 236 (str.len sequence_VAR)))
(assert (> (str.len sequence_VAR) 236))
(assert (< 237 (str.len sequence_VAR)))
(assert (> (str.len sequence_VAR) 237))
(assert (< 238 (str.len sequence_VAR)))
(assert (> (str.len sequence_VAR) 238))
(assert (< 239 (str.len sequence_VAR)))
(assert (> (str.len sequence_VAR) 239))
(assert (< 240 (str.len sequence_VAR)))
(assert (> (str.len sequence_VAR) 240))
(assert (< 241 (str.len sequence_VAR)))
(assert (> (str.len sequence_VAR) 241))
(assert (< 242 (str.len sequence_VAR)))
(assert (> (str.len sequence_VAR) 242))
(assert (< 243 (str.len sequence_VAR)))
(assert (> (str.len sequence_VAR) 243))
(assert (< 244 (str.len sequence_VAR)))
(assert (> (str.len sequence_VAR) 244))
(assert (< 245 (str.len sequence_VAR)))
(assert (> (str.len sequence_VAR) 245))
(assert (< 246 (str.len sequence_VAR)))
(assert (> (str.len sequence_VAR) 246))
(assert (< 247 (str.len sequence_VAR)))
(assert (> (str.len sequence_VAR) 247))
(assert (< 248 (str.len sequence_VAR)))
(assert (> (str.len sequence_VAR) 248))
(assert (< 249 (str.len sequence_VAR)))
(assert (> (str.len sequence_VAR) 249))
(assert (< 250 (str.len sequence_VAR)))
(assert (> (str.len sequence_VAR) 250))
(assert (< 251 (str.len sequence_VAR)))
(assert (> (str.len sequence_VAR) 251))
(assert (< 252 (str.len sequence_VAR)))
(assert (> (str.len sequence_VAR) 252))
(assert (< 253 (str.len sequence_VAR)))
(assert (> (str.len sequence_VAR) 253))
(assert (< 254 (str.len sequence_VAR)))
(assert (> (str.len sequence_VAR) 254))
(assert (< 255 (str.len sequence_VAR)))
(assert (> (str.len sequence_VAR) 255))
(assert (< 256 (str.len sequence_VAR)))
(assert (> (str.len sequence_VAR) 256))
(assert (< 257 (str.len sequence_VAR)))
(assert (> (str.len sequence_VAR) 257))
(assert (< 258 (str.len sequence_VAR)))
(assert (> (str.len sequence_VAR) 258))
(assert (< 259 (str.len sequence_VAR)))
(assert (> (str.len sequence_VAR) 259))
(assert (< 260 (str.len sequence_VAR)))
(assert (> (str.len sequence_VAR) 260))
(assert (< 261 (str.len sequence_VAR)))
(assert (> (str.len sequence_VAR) 261))
(assert (< 262 (str.len sequence_VAR)))
(assert (> (str.len sequence_VAR) 262))
(assert (< 263 (str.len sequence_VAR)))
(assert (> (str.len sequence_VAR) 263))
(assert (< 264 (str.len sequence_VAR)))
(assert (> (str.len sequence_VAR) 264))
(assert (< 265 (str.len sequence_VAR)))
(assert (> (str.len sequence_VAR) 265))
(assert (< 266 (str.len sequence_VAR)))
(assert (> (str.len sequence_VAR) 266))
(assert (< 267 (str.len sequence_VAR)))
(assert (> (str.len sequence_VAR) 267))
(assert (< 268 (str.len sequence_VAR)))
(assert (> (str.len sequence_VAR) 268))
(assert (< 269 (str.len sequence_VAR)))
(assert (> (str.len sequence_VAR) 269))
(assert (< 270 (str.len sequence_VAR)))
(assert (> (str.len sequence_VAR) 270))
(assert (< 271 (str.len sequence_VAR)))
(assert (> (str.len sequence_VAR) 271))
(assert (< 272 (str.len sequence_VAR)))
(assert (> (str.len sequence_VAR) 272))
(assert (< 273 (str.len sequence_VAR)))
(assert (> (str.len sequence_VAR) 273))
(assert (< 274 (str.len sequence_VAR)))
(assert (> (str.len sequence_VAR) 274))
(assert (< 275 (str.len sequence_VAR)))
(assert (> (str.len sequence_VAR) 275))
(assert (< 276 (str.len sequence_VAR)))
(assert (> (str.len sequence_VAR) 276))
(assert (< 277 (str.len sequence_VAR)))
(assert (> (str.len sequence_VAR) 277))
(assert (< 278 (str.len sequence_VAR)))
(assert (> (str.len sequence_VAR) 278))
(assert (< 279 (str.len sequence_VAR)))
(assert (> (str.len sequence_VAR) 279))
(assert (< 280 (str.len sequence_VAR)))
(assert (> (str.len sequence_VAR) 280))
(assert (< 281 (str.len sequence_VAR)))
(assert (> (str.len sequence_VAR) 281))
(assert (< 282 (str.len sequence_VAR)))
(assert (> (str.len sequence_VAR) 282))
(assert (< 283 (str.len sequence_VAR)))
(assert (> (str.len sequence_VAR) 283))
(assert (< 284 (str.len sequence_VAR)))
(assert (> (str.len sequence_VAR) 284))
(assert (< 285 (str.len sequence_VAR)))
(assert (> (str.len sequence_VAR) 285))
(assert (< 286 (str.len sequence_VAR)))
(assert (> (str.len sequence_VAR) 286))
(assert (< 287 (str.len sequence_VAR)))
(assert (> (str.len sequence_VAR) 287))
(assert (< 288 (str.len sequence_VAR)))
(assert (> (str.len sequence_VAR) 288))
(assert (< 289 (str.len sequence_VAR)))
(assert (> (str.len sequence_VAR) 289))
(assert (< 290 (str.len sequence_VAR)))
(assert (> (str.len sequence_VAR) 290))
(assert (< 291 (str.len sequence_VAR)))
(assert (> (str.len sequence_VAR) 291))
(assert (< 292 (str.len sequence_VAR)))
(assert (> (str.len sequence_VAR) 292))
(assert (< 293 (str.len sequence_VAR)))
(assert (> (str.len sequence_VAR) 293))
(assert (< 294 (str.len sequence_VAR)))
(assert (> (str.len sequence_VAR) 294))
(assert (< 295 (str.len sequence_VAR)))
(assert (> (str.len sequence_VAR) 295))
(assert (< 296 (str.len sequence_VAR)))
(assert (> (str.len sequence_VAR) 296))
(assert (< 297 (str.len sequence_VAR)))
(assert (> (str.len sequence_VAR) 297))
(assert (< 298 (str.len sequence_VAR)))
(assert (> (str.len sequence_VAR) 298))
(assert (< 299 (str.len sequence_VAR)))
(assert (> (str.len sequence_VAR) 299))
(assert (< 300 (str.len sequence_VAR)))
(assert (> (str.len sequence_VAR) 300))
(assert (< 301 (str.len sequence_VAR)))
(assert (> (str.len sequence_VAR) 301))
(assert (< 302 (str.len sequence_VAR)))
(assert (> (str.len sequence_VAR) 302))
(assert (< 303 (str.len sequence_VAR)))
(assert (> (str.len sequence_VAR) 303))
(assert (< 304 (str.len sequence_VAR)))
(assert (> (str.len sequence_VAR) 304))
(assert (< 305 (str.len sequence_VAR)))
(assert (> (str.len sequence_VAR) 305))
(assert (< 306 (str.len sequence_VAR)))
(assert (> (str.len sequence_VAR) 306))
(assert (< 307 (str.len sequence_VAR)))
(assert (> (str.len sequence_VAR) 307))
(assert (< 308 (str.len sequence_VAR)))
(assert (> (str.len sequence_VAR) 308))
(assert (< 309 (str.len sequence_VAR)))
(assert (> (str.len sequence_VAR) 309))
(assert (< 310 (str.len sequence_VAR)))
(assert (> (str.len sequence_VAR) 310))
(assert (< 311 (str.len sequence_VAR)))
(assert (> (str.len sequence_VAR) 311))
(assert (< 312 (str.len sequence_VAR)))
(assert (> (str.len sequence_VAR) 312))
(assert (< 313 (str.len sequence_VAR)))
(assert (> (str.len sequence_VAR) 313))
(assert (< 314 (str.len sequence_VAR)))
(assert (> (str.len sequence_VAR) 314))
(assert (< 315 (str.len sequence_VAR)))
(assert (> (str.len sequence_VAR) 315))
(assert (< 316 (str.len sequence_VAR)))
(assert (> (str.len sequence_VAR) 316))
(assert (< 317 (str.len sequence_VAR)))
(assert (> (str.len sequence_VAR) 317))
(assert (< 318 (str.len sequence_VAR)))
(assert (> (str.len sequence_VAR) 318))
(assert (< 319 (str.len sequence_VAR)))
(assert (> (str.len sequence_VAR) 319))
(assert (< 320 (str.len sequence_VAR)))
(assert (> (str.len sequence_VAR) 320))
(assert (< 321 (str.len sequence_VAR)))
(assert (> (str.len sequence_VAR) 321))
(assert (< 322 (str.len sequence_VAR)))
(assert (> (str.len sequence_VAR) 322))
(assert (< 323 (str.len sequence_VAR)))
(assert (> (str.len sequence_VAR) 323))
(assert (< 324 (str.len sequence_VAR)))
(assert (> (str.len sequence_VAR) 324))
(assert (< 325 (str.len sequence_VAR)))
(assert (> (str.len sequence_VAR) 325))
(assert (< 326 (str.len sequence_VAR)))
(assert (> (str.len sequence_VAR) 326))
(assert (< 327 (str.len sequence_VAR)))
(assert (> (str.len sequence_VAR) 327))
(assert (< 328 (str.len sequence_VAR)))
(assert (> (str.len sequence_VAR) 328))
(assert (< 329 (str.len sequence_VAR)))
(assert (> (str.len sequence_VAR) 329))
(assert (< 330 (str.len sequence_VAR)))
(assert (> (str.len sequence_VAR) 330))
(assert (< 331 (str.len sequence_VAR)))
(assert (> (str.len sequence_VAR) 331))
(assert (< 332 (str.len sequence_VAR)))
(assert (> (str.len sequence_VAR) 332))
(assert (< 333 (str.len sequence_VAR)))
(assert (> (str.len sequence_VAR) 333))
(assert (< 334 (str.len sequence_VAR)))
(assert (> (str.len sequence_VAR) 334))
(assert (< 335 (str.len sequence_VAR)))
(assert (> (str.len sequence_VAR) 335))
(assert (< 336 (str.len sequence_VAR)))
(assert (> (str.len sequence_VAR) 336))
(assert (< 337 (str.len sequence_VAR)))
(assert (> (str.len sequence_VAR) 337))
(assert (< 338 (str.len sequence_VAR)))
(assert (> (str.len sequence_VAR) 338))
(assert (< 339 (str.len sequence_VAR)))
(assert (> (str.len sequence_VAR) 339))
(assert (< 340 (str.len sequence_VAR)))
(assert (> (str.len sequence_VAR) 340))
(assert (< 341 (str.len sequence_VAR)))
(assert (> (str.len sequence_VAR) 341))
(assert (< 342 (str.len sequence_VAR)))
(assert (> (str.len sequence_VAR) 342))
(assert (< 343 (str.len sequence_VAR)))
(assert (> (str.len sequence_VAR) 343))
(assert (< 344 (str.len sequence_VAR)))
(assert (> (str.len sequence_VAR) 344))
(assert (< 345 (str.len sequence_VAR)))
(assert (> (str.len sequence_VAR) 345))
(assert (< 346 (str.len sequence_VAR)))
(assert (> (str.len sequence_VAR) 346))
(assert (< 347 (str.len sequence_VAR)))
(check-sat)
(get-value (sequence_VAR))
